(benchmark gametime
:status unknown
:logic QF_AUFBV
:extrafuns ((gtINDEX117  BitVec[32]))
:extrafuns ((gtFIELD__bitsForTID0__gtAGG____anonstruct_D_Work_4  Array[32:32]))
:extrafuns ((gtINDEX118  BitVec[32]))
:extrafuns ((gtAGG__rtDWork  BitVec[32]))
:extrafuns ((gtINDEX115  BitVec[32]))
:extrafuns ((gtINDEX116  BitVec[32]))
:extrafuns ((gtINDEX113  BitVec[32]))
:extrafuns ((gtINDEX114  BitVec[32]))
:extrafuns ((gtINDEX111  BitVec[32]))
:extrafuns ((gtINDEX112  BitVec[32]))
:extrafuns ((gtINDEX110  BitVec[32]))
:extrafuns ((gtINDEX109  BitVec[32]))
:extrafuns ((gtINDEX108  BitVec[32]))
:extrafuns ((gtINDEX107  BitVec[32]))
:extrafuns ((gtINDEX105  BitVec[32]))
:extrafuns ((gtINDEX106  BitVec[32]))
:extrafuns ((gtINDEX103  BitVec[32]))
:extrafuns ((gtINDEX104  BitVec[32]))
:extrafuns ((gtINDEX101  BitVec[32]))
:extrafuns ((gtINDEX102  BitVec[32]))
:extrafuns ((gtINDEX99  BitVec[32]))
:extrafuns ((gtINDEX100  BitVec[32]))
:extrafuns ((gtINDEX97  BitVec[32]))
:extrafuns ((gtINDEX98  BitVec[32]))
:extrafuns ((gtINDEX95  BitVec[32]))
:extrafuns ((gtINDEX96  BitVec[32]))
:extrafuns ((gtINDEX93  BitVec[32]))
:extrafuns ((gtINDEX94  BitVec[32]))
:extrafuns ((gtINDEX91  BitVec[32]))
:extrafuns ((gtINDEX92  BitVec[32]))
:extrafuns ((gtINDEX89  BitVec[32]))
:extrafuns ((gtINDEX90  BitVec[32]))
:extrafuns ((gtINDEX87  BitVec[32]))
:extrafuns ((gtINDEX88  BitVec[32]))
:extrafuns ((gtINDEX85  BitVec[32]))
:extrafuns ((gtINDEX86  BitVec[32]))
:extrafuns ((gtINDEX84  BitVec[32]))
:extrafuns ((gtINDEX82  BitVec[32]))
:extrafuns ((gtINDEX83  BitVec[32]))
:extrafuns ((gtINDEX80  BitVec[32]))
:extrafuns ((gtINDEX81  BitVec[32]))
:extrafuns ((gtINDEX78  BitVec[32]))
:extrafuns ((gtINDEX79  BitVec[32]))
:extrafuns ((gtINDEX76  BitVec[32]))
:extrafuns ((gtINDEX77  BitVec[32]))
:extrafuns ((gtINDEX75  BitVec[32]))
:extrafuns ((gtINDEX73  BitVec[32]))
:extrafuns ((gtINDEX74  BitVec[32]))
:extrafuns ((gtINDEX72  BitVec[32]))
:extrafuns ((gtINDEX70  BitVec[32]))
:extrafuns ((gtINDEX71  BitVec[32]))
:extrafuns ((gtINDEX68  BitVec[32]))
:extrafuns ((gtINDEX69  BitVec[32]))
:extrafuns ((gtINDEX66  BitVec[32]))
:extrafuns ((gtINDEX67  BitVec[32]))
:extrafuns ((gtINDEX64  BitVec[32]))
:extrafuns ((gtINDEX65  BitVec[32]))
:extrafuns ((gtINDEX62  BitVec[32]))
:extrafuns ((gtINDEX63  BitVec[32]))
:extrafuns ((gtINDEX60  BitVec[32]))
:extrafuns ((gtINDEX61  BitVec[32]))
:extrafuns ((gtINDEX58  BitVec[32]))
:extrafuns ((gtINDEX59  BitVec[32]))
:extrafuns ((gtINDEX57  BitVec[32]))
:extrafuns ((gtINDEX56  BitVec[32]))
:extrafuns ((gtINDEX54  BitVec[32]))
:extrafuns ((gtINDEX55  BitVec[32]))
:extrafuns ((gtINDEX52  BitVec[32]))
:extrafuns ((gtINDEX53  BitVec[32]))
:extrafuns ((gtINDEX50  BitVec[32]))
:extrafuns ((gtINDEX51  BitVec[32]))
:extrafuns ((gtINDEX48  BitVec[32]))
:extrafuns ((gtINDEX49  BitVec[32]))
:extrafuns ((gtINDEX46  BitVec[32]))
:extrafuns ((gtINDEX47  BitVec[32]))
:extrafuns ((gtINDEX44  BitVec[32]))
:extrafuns ((gtINDEX45  BitVec[32]))
:extrafuns ((gtINDEX42  BitVec[32]))
:extrafuns ((gtINDEX43  BitVec[32]))
:extrafuns ((gtINDEX40  BitVec[32]))
:extrafuns ((gtINDEX41  BitVec[32]))
:extrafuns ((gtINDEX38  BitVec[32]))
:extrafuns ((gtINDEX39  BitVec[32]))
:extrafuns ((gtINDEX36  BitVec[32]))
:extrafuns ((gtINDEX37  BitVec[32]))
:extrafuns ((gtINDEX34  BitVec[32]))
:extrafuns ((gtINDEX35  BitVec[32]))
:extrafuns ((gtINDEX33  BitVec[32]))
:extrafuns ((gtINDEX31  BitVec[32]))
:extrafuns ((gtINDEX32  BitVec[32]))
:extrafuns ((gtINDEX29  BitVec[32]))
:extrafuns ((gtINDEX30  BitVec[32]))
:extrafuns ((gtINDEX27  BitVec[32]))
:extrafuns ((gtINDEX28  BitVec[32]))
:extrafuns ((gtINDEX25  BitVec[32]))
:extrafuns ((gtINDEX26  BitVec[32]))
:extrafuns ((gtINDEX23  BitVec[32]))
:extrafuns ((gtINDEX24  BitVec[32]))
:extrafuns ((gtINDEX21  BitVec[32]))
:extrafuns ((gtINDEX22  BitVec[32]))
:extrafuns ((gtINDEX19  BitVec[32]))
:extrafuns ((gtINDEX20  BitVec[32]))
:extrafuns ((gtINDEX17  BitVec[32]))
:extrafuns ((gtINDEX18  BitVec[32]))
:extrafuns ((gtINDEX15  BitVec[32]))
:extrafuns ((gtINDEX16  BitVec[32]))
:extrafuns ((gtINDEX13  BitVec[32]))
:extrafuns ((gtINDEX14  BitVec[32]))
:extrafuns ((gtINDEX11  BitVec[32]))
:extrafuns ((gtINDEX12  BitVec[32]))
:extrafuns ((gtINDEX10  BitVec[32]))
:extrafuns ((gtINDEX9  BitVec[32]))
:extrafuns ((gtINDEX8  BitVec[32]))
:extrafuns ((gtINDEX7  BitVec[32]))
:extrafuns ((gtINDEX6  BitVec[32]))
:extrafuns ((gtINDEX5  BitVec[32]))
:extrafuns ((gtINDEX4  BitVec[32]))
:extrafuns ((gtINDEX3  BitVec[32]))
:extrafuns ((gtINDEX2  BitVec[32]))
:extrafuns ((gtINDEX1  BitVec[32]))
:extrafuns ((gtINDEX0  BitVec[32]))
:extrafuns ((gtFIELD__is_Eng__gtAGG____anonstruct_bitsForTID0_5_1_  Array[32:1]))
:extrafuns ((gtFIELD__is_Eng__gtAGG____anonstruct_bitsForTID0_5_2_  Array[32:1]))
:extrafuns ((sf_previousEvent_1_  BitVec[32]))
:extrafuns ((sfEvent__2_  BitVec[32]))
:extrafuns ((gtFIELD__is_Eng__gtAGG____anonstruct_bitsForTID0_5  Array[32:1]))
:extrafuns ((gtFIELD__sent__gtAGG____anonstruct_D_Work_4_1_  Array[32:32]))
:extrafuns ((gtFIELD__sent__gtAGG____anonstruct_D_Work_4_2_  Array[32:32]))
:extrafuns ((gtFIELD__is_active_Eng__gtAGG____anonstruct_bitsForTID0_5  Array[32:1]))
:extrafuns ((gtFIELD__is_PURI__gtAGG____anonstruct_bitsForTID0_5_1_  Array[32:2]))
:extrafuns ((gtFIELD__is_PURI__gtAGG____anonstruct_bitsForTID0_5_2_  Array[32:2]))
:extrafuns ((gtFIELD__is_active_PURI__gtAGG____anonstruct_bitsForTID0_5  Array[32:1]))
:extrafuns ((gtFIELD__is_PVRP__gtAGG____anonstruct_bitsForTID0_5_1_  Array[32:2]))
:extrafuns ((gtFIELD__is_PVRP__gtAGG____anonstruct_bitsForTID0_5_2_  Array[32:2]))
:extrafuns ((gtFIELD__is_active_PVRP__gtAGG____anonstruct_bitsForTID0_5  Array[32:1]))
:extrafuns ((gtFIELD__is_PPVARP__gtAGG____anonstruct_bitsForTID0_5  Array[32:2]))
:extrafuns ((gtFIELD__is_active_PPVARP__gtAGG____anonstruct_bitsForTID0_5  Array[32:1]))
:extrafuns ((gtFIELD__temporalCounter_i2__gtAGG____anonstruct_D_Work_4  Array[32:32]))
:extrafuns ((gtFIELD__temporalCounter_i2__gtAGG____anonstruct_D_Work_4_1_  Array[32:32]))
:extrafuns ((gtFIELD__is_PLRI__gtAGG____anonstruct_bitsForTID0_5  Array[32:2]))
:extrafuns ((gtFIELD__is_PLRI__gtAGG____anonstruct_bitsForTID0_5_1_  Array[32:2]))
:extrafuns ((gtFIELD__n_t_n__gtAGG____anonstruct_D_Work_4  Array[32:32]))
:extrafuns ((gtFIELD__n_t_n__gtAGG____anonstruct_D_Work_4_1_  Array[32:32]))
:extrafuns ((sfEvent__1_  BitVec[32]))
:extrafuns ((gtFIELD__is_active_PLRI__gtAGG____anonstruct_bitsForTID0_5  Array[32:1]))
:extrafuns ((gtFIELD__is_PAVI__gtAGG____anonstruct_bitsForTID0_5  Array[32:3]))
:extrafuns ((gtFIELD__is_active_PAVI__gtAGG____anonstruct_bitsForTID0_5  Array[32:1]))
:extrafuns ((sfEvent_  BitVec[32]))
:extrafuns ((gtFIELD__sent__gtAGG____anonstruct_D_Work_4  Array[32:32]))
:extrafuns ((gtFIELD__is_PURI__gtAGG____anonstruct_bitsForTID0_5  Array[32:2]))
:extrafuns ((gtFIELD__is_PVRP__gtAGG____anonstruct_bitsForTID0_5  Array[32:2]))
:extrafuns ((gtFIELD__temporalCounter_i5__gtAGG____anonstruct_D_Work_4  Array[32:32]))
:extrafuns ((gtFIELD__temporalCounter_i5__gtAGG____anonstruct_D_Work_4_1_  Array[32:32]))
:extrafuns ((gtFIELD__temporalCounter_i4__gtAGG____anonstruct_D_Work_4  Array[32:32]))
:extrafuns ((gtFIELD__temporalCounter_i4__gtAGG____anonstruct_D_Work_4_1_  Array[32:32]))
:extrafuns ((gtFIELD__temporalCounter_i3__gtAGG____anonstruct_D_Work_4  Array[32:32]))
:extrafuns ((gtFIELD__temporalCounter_i1__gtAGG____anonstruct_D_Work_4  Array[32:32]))
:extrafuns ((gtFIELD__temporalCounter_i1__gtAGG____anonstruct_D_Work_4_1_  Array[32:32]))
:extrapreds ((constraint196 ))
:extrapreds ((constraint195 ))
:extrapreds ((constraint194 ))
:extrapreds ((constraint193 ))
:extrapreds ((constraint192 ))
:extrapreds ((constraint191 ))
:extrapreds ((constraint190 ))
:extrapreds ((constraint189 ))
:extrapreds ((constraint188 ))
:extrapreds ((constraint187 ))
:extrapreds ((constraint186 ))
:extrapreds ((constraint185 ))
:extrapreds ((constraint184 ))
:extrapreds ((constraint183 ))
:extrapreds ((constraint182 ))
:extrapreds ((constraint181 ))
:extrapreds ((constraint180 ))
:extrapreds ((constraint179 ))
:extrapreds ((constraint178 ))
:extrapreds ((constraint177 ))
:extrapreds ((constraint176 ))
:extrapreds ((constraint175 ))
:extrapreds ((constraint174 ))
:extrapreds ((constraint173 ))
:extrapreds ((constraint172 ))
:extrapreds ((constraint171 ))
:extrapreds ((constraint170 ))
:extrapreds ((constraint169 ))
:extrapreds ((constraint168 ))
:extrapreds ((constraint167 ))
:extrapreds ((constraint166 ))
:extrapreds ((constraint165 ))
:extrapreds ((constraint164 ))
:extrapreds ((constraint163 ))
:extrapreds ((constraint162 ))
:extrapreds ((constraint161 ))
:extrapreds ((constraint160 ))
:extrapreds ((constraint159 ))
:extrapreds ((constraint158 ))
:extrapreds ((constraint157 ))
:extrapreds ((constraint156 ))
:extrapreds ((constraint155 ))
:extrapreds ((constraint154 ))
:extrapreds ((constraint153 ))
:extrapreds ((constraint152 ))
:extrapreds ((constraint151 ))
:extrapreds ((constraint150 ))
:extrapreds ((constraint149 ))
:extrapreds ((constraint148 ))
:extrapreds ((constraint147 ))
:extrapreds ((constraint146 ))
:extrapreds ((constraint145 ))
:extrapreds ((constraint144 ))
:extrapreds ((constraint143 ))
:extrapreds ((constraint142 ))
:extrapreds ((constraint141 ))
:extrapreds ((constraint140 ))
:extrapreds ((constraint139 ))
:extrapreds ((constraint138 ))
:extrapreds ((constraint137 ))
:extrapreds ((constraint136 ))
:extrapreds ((constraint135 ))
:extrapreds ((constraint134 ))
:extrapreds ((constraint133 ))
:extrapreds ((constraint132 ))
:extrapreds ((constraint131 ))
:extrapreds ((constraint130 ))
:extrapreds ((constraint129 ))
:extrapreds ((constraint128 ))
:extrapreds ((constraint127 ))
:extrapreds ((constraint126 ))
:extrapreds ((constraint125 ))
:extrapreds ((constraint124 ))
:extrapreds ((constraint123 ))
:extrapreds ((constraint122 ))
:extrapreds ((constraint121 ))
:extrapreds ((constraint120 ))
:extrapreds ((constraint119 ))
:extrapreds ((constraint118 ))
:extrapreds ((constraint117 ))
:extrapreds ((constraint116 ))
:extrapreds ((constraint115 ))
:extrapreds ((constraint114 ))
:extrapreds ((constraint113 ))
:extrapreds ((constraint112 ))
:extrapreds ((constraint111 ))
:extrapreds ((constraint110 ))
:extrapreds ((constraint109 ))
:extrapreds ((constraint108 ))
:extrapreds ((constraint107 ))
:extrapreds ((constraint106 ))
:extrapreds ((constraint105 ))
:extrapreds ((constraint104 ))
:extrapreds ((constraint103 ))
:extrapreds ((constraint102 ))
:extrapreds ((constraint101 ))
:extrapreds ((constraint100 ))
:extrapreds ((constraint99 ))
:extrapreds ((constraint98 ))
:extrapreds ((constraint97 ))
:extrapreds ((constraint96 ))
:extrapreds ((constraint95 ))
:extrapreds ((constraint94 ))
:extrapreds ((constraint93 ))
:extrapreds ((constraint92 ))
:extrapreds ((constraint91 ))
:extrapreds ((constraint90 ))
:extrapreds ((constraint89 ))
:extrapreds ((constraint88 ))
:extrapreds ((constraint87 ))
:extrapreds ((constraint86 ))
:extrapreds ((constraint85 ))
:extrapreds ((constraint84 ))
:extrapreds ((constraint83 ))
:extrapreds ((constraint82 ))
:extrapreds ((constraint81 ))
:extrapreds ((constraint80 ))
:extrapreds ((constraint79 ))
:extrapreds ((constraint78 ))
:extrapreds ((constraint77 ))
:extrapreds ((constraint76 ))
:extrapreds ((constraint75 ))
:extrapreds ((constraint74 ))
:extrapreds ((constraint73 ))
:extrapreds ((constraint72 ))
:extrapreds ((constraint71 ))
:extrapreds ((constraint70 ))
:extrapreds ((constraint69 ))
:extrapreds ((constraint68 ))
:extrapreds ((constraint67 ))
:extrapreds ((constraint66 ))
:extrapreds ((constraint65 ))
:extrapreds ((constraint64 ))
:extrapreds ((constraint63 ))
:extrapreds ((constraint62 ))
:extrapreds ((constraint61 ))
:extrapreds ((constraint60 ))
:extrapreds ((constraint59 ))
:extrapreds ((constraint58 ))
:extrapreds ((constraint57 ))
:extrapreds ((constraint56 ))
:extrapreds ((constraint55 ))
:extrapreds ((constraint54 ))
:extrapreds ((constraint53 ))
:extrapreds ((constraint52 ))
:extrapreds ((constraint51 ))
:extrapreds ((constraint50 ))
:extrapreds ((constraint49 ))
:extrapreds ((constraint48 ))
:extrapreds ((constraint47 ))
:extrapreds ((constraint46 ))
:extrapreds ((constraint45 ))
:extrapreds ((constraint44 ))
:extrapreds ((constraint43 ))
:extrapreds ((constraint42 ))
:extrapreds ((constraint41 ))
:extrapreds ((constraint40 ))
:extrapreds ((constraint39 ))
:extrapreds ((constraint38 ))
:extrapreds ((constraint37 ))
:extrapreds ((constraint36 ))
:extrapreds ((constraint35 ))
:extrapreds ((constraint34 ))
:extrapreds ((constraint33 ))
:extrapreds ((constraint32 ))
:extrapreds ((constraint31 ))
:extrapreds ((constraint30 ))
:extrapreds ((constraint29 ))
:extrapreds ((constraint28 ))
:extrapreds ((constraint27 ))
:extrapreds ((constraint26 ))
:extrapreds ((constraint25 ))
:extrapreds ((constraint24 ))
:extrapreds ((constraint23 ))
:extrapreds ((constraint22 ))
:extrapreds ((constraint21 ))
:extrapreds ((constraint20 ))
:extrapreds ((constraint19 ))
:extrapreds ((constraint18 ))
:extrapreds ((constraint17 ))
:extrapreds ((constraint16 ))
:extrapreds ((constraint15 ))
:extrapreds ((constraint14 ))
:extrapreds ((constraint13 ))
:extrapreds ((constraint12 ))
:extrapreds ((constraint11 ))
:extrapreds ((constraint10 ))
:extrapreds ((constraint9 ))
:extrapreds ((constraint8 ))
:extrapreds ((constraint7 ))
:extrapreds ((constraint6 ))
:extrapreds ((constraint5 ))
:extrapreds ((constraint4 ))
:extrapreds ((constraint3 ))
:extrapreds ((constraint2 ))
:extrapreds ((constraint1 ))
:extrapreds ((constraint0 ))
:formula
(flet ($x993 (and constraint0 constraint1 constraint2 constraint3 constraint4 constraint5 constraint6 constraint7 constraint8 constraint9 constraint10 constraint11 constraint12 constraint13 constraint14 constraint15 constraint16 constraint17 constraint18 constraint19 constraint20 constraint21 constraint22 constraint23 constraint24 constraint25 constraint26 constraint27 constraint28 constraint29 constraint30 constraint31 constraint32 constraint33 constraint34 constraint35 constraint36 constraint37 constraint38 constraint39 constraint40 constraint41 constraint42 constraint43 constraint44 constraint45 constraint46 constraint47 constraint48 constraint49 constraint50 constraint51 constraint52 constraint53 constraint54 constraint55 constraint56 constraint57 constraint58 constraint59 constraint60 constraint61 constraint62 constraint63 constraint64 constraint65 constraint66 constraint67 constraint68 constraint69 constraint70 constraint71 constraint72 constraint73 constraint74 constraint75 constraint76 constraint77 constraint78 constraint79 constraint80 constraint81 constraint82 constraint83 constraint84 constraint85 constraint86 constraint87 constraint88 constraint89 constraint90 constraint91 constraint92 constraint93 constraint94 constraint95 constraint96 constraint97 constraint98 constraint99 constraint100 constraint101 constraint102 constraint103 constraint104 constraint105 constraint106 constraint107 constraint108 constraint109 constraint110 constraint111 constraint112 constraint113 constraint114 constraint115 constraint116 constraint117 constraint118 constraint119 constraint120 constraint121 constraint122 constraint123 constraint124 constraint125 constraint126 constraint127 constraint128 constraint129 constraint130 constraint131 constraint132 constraint133 constraint134 constraint135 constraint136 constraint137 constraint138 constraint139 constraint140 constraint141 constraint142 constraint143 constraint144 constraint145 constraint146 constraint147 constraint148 constraint149 constraint150 constraint151 constraint152 constraint153 constraint154 constraint155 constraint156 constraint157 constraint158 constraint159 constraint160 constraint161 constraint162 constraint163 constraint164 constraint165 constraint166 constraint167 constraint168 constraint169 constraint170 constraint171 constraint172 constraint173 constraint174 constraint175 constraint176 constraint177 constraint178 constraint179 constraint180 constraint181 constraint182 constraint183 constraint184 constraint185 constraint186 constraint187 constraint188 constraint189 constraint190 constraint191 constraint192 constraint193 constraint194 constraint195 constraint196))
(let (?x596 (select gtFIELD__bitsForTID0__gtAGG____anonstruct_D_Work_4 gtINDEX117))
(let (?x592 (select gtFIELD__bitsForTID0__gtAGG____anonstruct_D_Work_4 gtINDEX115))
(let (?x588 (select gtFIELD__bitsForTID0__gtAGG____anonstruct_D_Work_4 gtINDEX113))
(let (?x584 (select gtFIELD__bitsForTID0__gtAGG____anonstruct_D_Work_4 gtINDEX111))
(let (?x576 (select gtFIELD__bitsForTID0__gtAGG____anonstruct_D_Work_4 gtINDEX105))
(let (?x572 (select gtFIELD__bitsForTID0__gtAGG____anonstruct_D_Work_4 gtINDEX103))
(let (?x568 (select gtFIELD__bitsForTID0__gtAGG____anonstruct_D_Work_4 gtINDEX101))
(flet ($x565 (= gtINDEX100 (select gtFIELD__bitsForTID0__gtAGG____anonstruct_D_Work_4 gtINDEX99)))
(flet ($x561 (= gtINDEX98 (select gtFIELD__bitsForTID0__gtAGG____anonstruct_D_Work_4 gtINDEX97)))
(flet ($x557 (= gtINDEX96 (select gtFIELD__bitsForTID0__gtAGG____anonstruct_D_Work_4 gtINDEX95)))
(flet ($x553 (= gtINDEX94 (select gtFIELD__bitsForTID0__gtAGG____anonstruct_D_Work_4 gtINDEX93)))
(flet ($x549 (= gtINDEX92 (select gtFIELD__bitsForTID0__gtAGG____anonstruct_D_Work_4 gtINDEX91)))
(flet ($x545 (= gtINDEX90 (select gtFIELD__bitsForTID0__gtAGG____anonstruct_D_Work_4 gtINDEX89)))
(flet ($x541 (= gtINDEX88 (select gtFIELD__bitsForTID0__gtAGG____anonstruct_D_Work_4 gtINDEX87)))
(flet ($x537 (= gtINDEX86 (select gtFIELD__bitsForTID0__gtAGG____anonstruct_D_Work_4 gtINDEX85)))
(flet ($x532 (= gtINDEX83 (select gtFIELD__bitsForTID0__gtAGG____anonstruct_D_Work_4 gtINDEX82)))
(flet ($x528 (= gtINDEX81 (select gtFIELD__bitsForTID0__gtAGG____anonstruct_D_Work_4 gtINDEX80)))
(flet ($x524 (= gtINDEX79 (select gtFIELD__bitsForTID0__gtAGG____anonstruct_D_Work_4 gtINDEX78)))
(flet ($x520 (= gtINDEX77 (select gtFIELD__bitsForTID0__gtAGG____anonstruct_D_Work_4 gtINDEX76)))
(flet ($x515 (= gtINDEX74 (select gtFIELD__bitsForTID0__gtAGG____anonstruct_D_Work_4 gtINDEX73)))
(flet ($x510 (= gtINDEX71 (select gtFIELD__bitsForTID0__gtAGG____anonstruct_D_Work_4 gtINDEX70)))
(flet ($x506 (= gtINDEX69 (select gtFIELD__bitsForTID0__gtAGG____anonstruct_D_Work_4 gtINDEX68)))
(flet ($x502 (= gtINDEX67 (select gtFIELD__bitsForTID0__gtAGG____anonstruct_D_Work_4 gtINDEX66)))
(flet ($x498 (= gtINDEX65 (select gtFIELD__bitsForTID0__gtAGG____anonstruct_D_Work_4 gtINDEX64)))
(flet ($x494 (= gtINDEX63 (select gtFIELD__bitsForTID0__gtAGG____anonstruct_D_Work_4 gtINDEX62)))
(flet ($x490 (= gtINDEX61 (select gtFIELD__bitsForTID0__gtAGG____anonstruct_D_Work_4 gtINDEX60)))
(flet ($x486 (= gtINDEX59 (select gtFIELD__bitsForTID0__gtAGG____anonstruct_D_Work_4 gtINDEX58)))
(flet ($x480 (= gtINDEX55 (select gtFIELD__bitsForTID0__gtAGG____anonstruct_D_Work_4 gtINDEX54)))
(flet ($x476 (= gtINDEX53 (select gtFIELD__bitsForTID0__gtAGG____anonstruct_D_Work_4 gtINDEX52)))
(flet ($x472 (= gtINDEX51 (select gtFIELD__bitsForTID0__gtAGG____anonstruct_D_Work_4 gtINDEX50)))
(flet ($x468 (= gtINDEX49 (select gtFIELD__bitsForTID0__gtAGG____anonstruct_D_Work_4 gtINDEX48)))
(flet ($x464 (= gtINDEX47 (select gtFIELD__bitsForTID0__gtAGG____anonstruct_D_Work_4 gtINDEX46)))
(flet ($x460 (= gtINDEX45 (select gtFIELD__bitsForTID0__gtAGG____anonstruct_D_Work_4 gtINDEX44)))
(flet ($x456 (= gtINDEX43 (select gtFIELD__bitsForTID0__gtAGG____anonstruct_D_Work_4 gtINDEX42)))
(flet ($x452 (= gtINDEX41 (select gtFIELD__bitsForTID0__gtAGG____anonstruct_D_Work_4 gtINDEX40)))
(flet ($x448 (= gtINDEX39 (select gtFIELD__bitsForTID0__gtAGG____anonstruct_D_Work_4 gtINDEX38)))
(flet ($x444 (= gtINDEX37 (select gtFIELD__bitsForTID0__gtAGG____anonstruct_D_Work_4 gtINDEX36)))
(flet ($x440 (= gtINDEX35 (select gtFIELD__bitsForTID0__gtAGG____anonstruct_D_Work_4 gtINDEX34)))
(flet ($x435 (= gtINDEX32 (select gtFIELD__bitsForTID0__gtAGG____anonstruct_D_Work_4 gtINDEX31)))
(flet ($x431 (= gtINDEX30 (select gtFIELD__bitsForTID0__gtAGG____anonstruct_D_Work_4 gtINDEX29)))
(flet ($x427 (= gtINDEX28 (select gtFIELD__bitsForTID0__gtAGG____anonstruct_D_Work_4 gtINDEX27)))
(flet ($x423 (= gtINDEX26 (select gtFIELD__bitsForTID0__gtAGG____anonstruct_D_Work_4 gtINDEX25)))
(flet ($x419 (= gtINDEX24 (select gtFIELD__bitsForTID0__gtAGG____anonstruct_D_Work_4 gtINDEX23)))
(flet ($x415 (= gtINDEX22 (select gtFIELD__bitsForTID0__gtAGG____anonstruct_D_Work_4 gtINDEX21)))
(flet ($x411 (= gtINDEX20 (select gtFIELD__bitsForTID0__gtAGG____anonstruct_D_Work_4 gtINDEX19)))
(flet ($x407 (= gtINDEX18 (select gtFIELD__bitsForTID0__gtAGG____anonstruct_D_Work_4 gtINDEX17)))
(flet ($x403 (= gtINDEX16 (select gtFIELD__bitsForTID0__gtAGG____anonstruct_D_Work_4 gtINDEX15)))
(flet ($x399 (= gtINDEX14 (select gtFIELD__bitsForTID0__gtAGG____anonstruct_D_Work_4 gtINDEX13)))
(flet ($x395 (= gtINDEX12 (select gtFIELD__bitsForTID0__gtAGG____anonstruct_D_Work_4 gtINDEX11)))
(let (?x368 (extract[0:0] bv1[32]))
(let (?x378 (store gtFIELD__is_Eng__gtAGG____anonstruct_bitsForTID0_5_1_ gtINDEX118 ?x368))
(flet ($x753 (iff constraint77 (= gtFIELD__is_Eng__gtAGG____anonstruct_bitsForTID0_5_2_ ?x378)))
(let (?x374 (select gtFIELD__is_Eng__gtAGG____anonstruct_bitsForTID0_5_1_ gtINDEX116))
(let (?x369 (store gtFIELD__is_Eng__gtAGG____anonstruct_bitsForTID0_5 gtINDEX114 ?x368))
(flet ($x747 (iff constraint74 (= gtFIELD__is_Eng__gtAGG____anonstruct_bitsForTID0_5_1_ ?x369)))
(let (?x364 (select gtFIELD__is_Eng__gtAGG____anonstruct_bitsForTID0_5 gtINDEX112))
(let (?x361 (store gtFIELD__sent__gtAGG____anonstruct_D_Work_4_1_ gtINDEX110 bv0[32]))
(flet ($x743 (iff constraint72 (= gtFIELD__sent__gtAGG____anonstruct_D_Work_4_2_ ?x361)))
(let (?x219 (bvmul bv4294967295[32] bv1[32]))
(flet ($x359 (= (select gtFIELD__sent__gtAGG____anonstruct_D_Work_4_1_ gtINDEX109) ?x219))
(flet ($x355 (= (select gtFIELD__sent__gtAGG____anonstruct_D_Work_4_1_ gtINDEX108) bv9[32]))
(flet ($x350 (= (select gtFIELD__sent__gtAGG____anonstruct_D_Work_4_1_ gtINDEX107) bv4[32]))
(let (?x345 (select gtFIELD__is_Eng__gtAGG____anonstruct_bitsForTID0_5 gtINDEX106))
(let (?x340 (select gtFIELD__is_active_Eng__gtAGG____anonstruct_bitsForTID0_5 gtINDEX104))
(let (?x185 (extract[1:0] bv0[32]))
(let (?x337 (store gtFIELD__is_PURI__gtAGG____anonstruct_bitsForTID0_5_1_ gtINDEX102 ?x185))
(flet ($x731 (iff constraint66 (= gtFIELD__is_PURI__gtAGG____anonstruct_bitsForTID0_5_2_ ?x337)))
(let (?x332 (select gtFIELD__is_PURI__gtAGG____anonstruct_bitsForTID0_5_1_ gtINDEX100))
(let (?x327 (select gtFIELD__is_PURI__gtAGG____anonstruct_bitsForTID0_5_1_ gtINDEX98))
(let (?x322 (select gtFIELD__is_active_PURI__gtAGG____anonstruct_bitsForTID0_5 gtINDEX96))
(let (?x319 (store gtFIELD__is_PVRP__gtAGG____anonstruct_bitsForTID0_5_1_ gtINDEX94 ?x185))
(flet ($x723 (iff constraint62 (= gtFIELD__is_PVRP__gtAGG____anonstruct_bitsForTID0_5_2_ ?x319)))
(let (?x314 (select gtFIELD__is_PVRP__gtAGG____anonstruct_bitsForTID0_5_1_ gtINDEX92))
(let (?x309 (select gtFIELD__is_PVRP__gtAGG____anonstruct_bitsForTID0_5_1_ gtINDEX90))
(let (?x304 (select gtFIELD__is_PVRP__gtAGG____anonstruct_bitsForTID0_5_1_ gtINDEX88))
(let (?x299 (select gtFIELD__is_active_PVRP__gtAGG____anonstruct_bitsForTID0_5 gtINDEX86))
(flet ($x296 (= (select gtFIELD__sent__gtAGG____anonstruct_D_Work_4_1_ gtINDEX84) bv0[32]))
(let (?x291 (select gtFIELD__is_PPVARP__gtAGG____anonstruct_bitsForTID0_5 gtINDEX83))
(let (?x286 (select gtFIELD__is_PPVARP__gtAGG____anonstruct_bitsForTID0_5 gtINDEX81))
(let (?x281 (select gtFIELD__is_PPVARP__gtAGG____anonstruct_bitsForTID0_5 gtINDEX79))
(let (?x276 (select gtFIELD__is_active_PPVARP__gtAGG____anonstruct_bitsForTID0_5 gtINDEX77))
(let (?x273 (store gtFIELD__temporalCounter_i2__gtAGG____anonstruct_D_Work_4 gtINDEX75 bv0[32]))
(flet ($x703 (iff constraint52 (= gtFIELD__temporalCounter_i2__gtAGG____anonstruct_D_Work_4_1_ ?x273)))
(let (?x270 (store gtFIELD__is_PLRI__gtAGG____anonstruct_bitsForTID0_5 gtINDEX74 (extract[1:0] bv1[32])))
(flet ($x701 (iff constraint51 (= gtFIELD__is_PLRI__gtAGG____anonstruct_bitsForTID0_5_1_ ?x270)))
(flet ($x267 (= gtFIELD__n_t_n__gtAGG____anonstruct_D_Work_4_1_ (store gtFIELD__n_t_n__gtAGG____anonstruct_D_Work_4 gtINDEX72 bv0[32])))
(let (?x260 (select gtFIELD__is_PLRI__gtAGG____anonstruct_bitsForTID0_5 gtINDEX71))
(let (?x255 (select gtFIELD__is_PLRI__gtAGG____anonstruct_bitsForTID0_5 gtINDEX69))
(let (?x250 (select gtFIELD__is_active_PLRI__gtAGG____anonstruct_bitsForTID0_5 gtINDEX67))
(let (?x244 (select gtFIELD__is_PAVI__gtAGG____anonstruct_bitsForTID0_5 gtINDEX65))
(let (?x239 (select gtFIELD__is_PAVI__gtAGG____anonstruct_bitsForTID0_5 gtINDEX63))
(let (?x234 (select gtFIELD__is_PAVI__gtAGG____anonstruct_bitsForTID0_5 gtINDEX61))
(let (?x229 (select gtFIELD__is_active_PAVI__gtAGG____anonstruct_bitsForTID0_5 gtINDEX59))
(flet ($x221 (= gtFIELD__sent__gtAGG____anonstruct_D_Work_4_1_ (store gtFIELD__sent__gtAGG____anonstruct_D_Work_4 gtINDEX57 ?x219)))
(flet ($x217 (= (select gtFIELD__sent__gtAGG____anonstruct_D_Work_4 gtINDEX56) bv4[32]))
(let (?x213 (zero_extend[31] (select gtFIELD__is_Eng__gtAGG____anonstruct_bitsForTID0_5 gtINDEX55)))
(let (?x207 (select gtFIELD__is_active_Eng__gtAGG____anonstruct_bitsForTID0_5 gtINDEX53))
(let (?x204 (store gtFIELD__is_PURI__gtAGG____anonstruct_bitsForTID0_5 gtINDEX51 ?x185))
(flet ($x663 (iff constraint32 (= gtFIELD__is_PURI__gtAGG____anonstruct_bitsForTID0_5_1_ ?x204)))
(let (?x199 (select gtFIELD__is_PURI__gtAGG____anonstruct_bitsForTID0_5 gtINDEX49))
(let (?x194 (select gtFIELD__is_PURI__gtAGG____anonstruct_bitsForTID0_5 gtINDEX47))
(let (?x189 (select gtFIELD__is_active_PURI__gtAGG____anonstruct_bitsForTID0_5 gtINDEX45))
(let (?x186 (store gtFIELD__is_PVRP__gtAGG____anonstruct_bitsForTID0_5 gtINDEX43 ?x185))
(flet ($x655 (iff constraint28 (= gtFIELD__is_PVRP__gtAGG____anonstruct_bitsForTID0_5_1_ ?x186)))
(let (?x180 (select gtFIELD__is_PVRP__gtAGG____anonstruct_bitsForTID0_5 gtINDEX41))
(let (?x175 (select gtFIELD__is_PVRP__gtAGG____anonstruct_bitsForTID0_5 gtINDEX39))
(let (?x170 (select gtFIELD__is_PVRP__gtAGG____anonstruct_bitsForTID0_5 gtINDEX37))
(let (?x165 (select gtFIELD__is_active_PVRP__gtAGG____anonstruct_bitsForTID0_5 gtINDEX35))
(flet ($x162 (= (select gtFIELD__sent__gtAGG____anonstruct_D_Work_4 gtINDEX33) bv0[32]))
(let (?x157 (select gtFIELD__is_PPVARP__gtAGG____anonstruct_bitsForTID0_5 gtINDEX32))
(let (?x152 (select gtFIELD__is_PPVARP__gtAGG____anonstruct_bitsForTID0_5 gtINDEX30))
(let (?x147 (select gtFIELD__is_PPVARP__gtAGG____anonstruct_bitsForTID0_5 gtINDEX28))
(let (?x142 (select gtFIELD__is_active_PPVARP__gtAGG____anonstruct_bitsForTID0_5 gtINDEX26))
(let (?x132 (select gtFIELD__is_PLRI__gtAGG____anonstruct_bitsForTID0_5 gtINDEX24))
(let (?x127 (select gtFIELD__is_PLRI__gtAGG____anonstruct_bitsForTID0_5 gtINDEX22))
(let (?x122 (select gtFIELD__is_active_PLRI__gtAGG____anonstruct_bitsForTID0_5 gtINDEX20))
(let (?x114 (select gtFIELD__is_PAVI__gtAGG____anonstruct_bitsForTID0_5 gtINDEX18))
(let (?x108 (select gtFIELD__is_PAVI__gtAGG____anonstruct_bitsForTID0_5 gtINDEX16))
(let (?x103 (select gtFIELD__is_PAVI__gtAGG____anonstruct_bitsForTID0_5 gtINDEX14))
(let (?x97 (select gtFIELD__is_active_PAVI__gtAGG____anonstruct_bitsForTID0_5 gtINDEX12))
(let (?x92 (select gtFIELD__temporalCounter_i5__gtAGG____anonstruct_D_Work_4 gtINDEX9))
(let (?x94 (store gtFIELD__temporalCounter_i5__gtAGG____anonstruct_D_Work_4 gtINDEX10 (bvadd ?x92 bv1[32])))
(flet ($x615 (iff constraint8 (= gtFIELD__temporalCounter_i5__gtAGG____anonstruct_D_Work_4_1_ ?x94)))
(let (?x88 (select gtFIELD__temporalCounter_i5__gtAGG____anonstruct_D_Work_4 gtINDEX8))
(let (?x83 (select gtFIELD__temporalCounter_i4__gtAGG____anonstruct_D_Work_4 gtINDEX6))
(let (?x85 (store gtFIELD__temporalCounter_i4__gtAGG____anonstruct_D_Work_4 gtINDEX7 (bvadd ?x83 bv1[32])))
(flet ($x611 (iff constraint6 (= gtFIELD__temporalCounter_i4__gtAGG____anonstruct_D_Work_4_1_ ?x85)))
(let (?x79 (select gtFIELD__temporalCounter_i4__gtAGG____anonstruct_D_Work_4 gtINDEX5))
(let (?x75 (select gtFIELD__temporalCounter_i3__gtAGG____anonstruct_D_Work_4 gtINDEX4))
(let (?x71 (select gtFIELD__temporalCounter_i2__gtAGG____anonstruct_D_Work_4 gtINDEX3))
(let (?x65 (select gtFIELD__temporalCounter_i1__gtAGG____anonstruct_D_Work_4 gtINDEX1))
(let (?x68 (store gtFIELD__temporalCounter_i1__gtAGG____anonstruct_D_Work_4 gtINDEX2 (bvadd ?x65 bv1[32])))
(flet ($x603 (iff constraint2 (= gtFIELD__temporalCounter_i1__gtAGG____anonstruct_D_Work_4_1_ ?x68)))
(let (?x60 (select gtFIELD__temporalCounter_i1__gtAGG____anonstruct_D_Work_4 gtINDEX0))
(flet ($x992 (and (iff constraint0 (= sfEvent_ bv8[32])) (iff constraint1 (bvult ?x60 bv4294967295[32])) $x603 (iff constraint3 (not (bvult ?x71 bv4294967295[32]))) (iff constraint4 (not (bvult ?x75 bv4294967295[32]))) (iff constraint5 (bvult ?x79 bv4294967295[32])) $x611 (iff constraint7 (bvult ?x88 bv4294967295[32])) $x615 (iff constraint9 (not (= (zero_extend[31] ?x97) bv0[32]))) (iff constraint10 (not (= (zero_extend[29] ?x103) bv1[32]))) (iff constraint11 (not (= (zero_extend[29] ?x108) bv2[32]))) (iff constraint12 (= (zero_extend[29] ?x114) bv3[32])) (iff constraint13 (not (= sfEvent_ bv6[32]))) (iff constraint14 (not (= (zero_extend[31] ?x122) bv0[32]))) (iff constraint15 (not (= (zero_extend[30] ?x127) bv1[32]))) (iff constraint16 (= (zero_extend[30] ?x132) bv2[32])) (iff constraint17 (not (= sfEvent_ bv4[32]))) (iff constraint18 (not (= sfEvent_ bv5[32]))) (iff constraint19 (not (= (zero_extend[31] ?x142) bv0[32]))) (iff constraint20 (not (= (zero_extend[30] ?x147) bv1[32]))) (iff constraint21 (not (= (zero_extend[30] ?x152) bv2[32]))) (iff constraint22 (= (zero_extend[30] ?x157) bv3[32])) (iff constraint23 (not $x162)) (iff constraint24 (not (= (zero_extend[31] ?x165) bv0[32]))) (iff constraint25 (not (= (zero_extend[30] ?x170) bv1[32]))) (iff constraint26 (not (= (zero_extend[30] ?x175) bv2[32]))) (iff constraint27 (not (= (zero_extend[30] ?x180) bv3[32]))) $x655 (iff constraint29 (not (= (zero_extend[31] ?x189) bv0[32]))) (iff constraint30 (not (= (zero_extend[30] ?x194) bv1[32]))) (iff constraint31 (not (= (zero_extend[30] ?x199) bv2[32]))) $x663 (iff constraint33 (not (= (zero_extend[31] ?x207) bv0[32]))) (iff constraint34 (= ?x213 bv1[32])) (iff constraint35 $x217) (iff constraint36 $x221) (iff constraint37 (= sf_previousEvent_1_ sfEvent_)) (iff constraint38 (= sfEvent__1_ bv5[32])) (iff constraint39 (not (= sfEvent__1_ bv8[32]))) (iff constraint40 (not (= (zero_extend[31] ?x229) bv0[32]))) (iff constraint41 (not (= (zero_extend[29] ?x234) bv1[32]))) (iff constraint42 (not (= (zero_extend[29] ?x239) bv2[32]))) (iff constraint43 (= (zero_extend[29] ?x244) bv3[32])) (iff constraint44 (not (= sfEvent__1_ bv6[32]))) (iff constraint45 (not (= (zero_extend[31] ?x250) bv0[32]))) (iff constraint46 (not (= (zero_extend[30] ?x255) bv1[32]))) (iff constraint47 (= (zero_extend[30] ?x260) bv2[32])) (iff constraint48 (not (= sfEvent__1_ bv4[32]))) (iff constraint49 (= sfEvent__1_ bv5[32])) (iff constraint50 $x267) $x701 $x703 (iff constraint53 (not (= (zero_extend[31] ?x276) bv0[32]))) (iff constraint54 (not (= (zero_extend[30] ?x281) bv1[32]))) (iff constraint55 (not (= (zero_extend[30] ?x286) bv2[32]))) (iff constraint56 (= (zero_extend[30] ?x291) bv3[32])) (iff constraint57 (not $x296)) (iff constraint58 (not (= (zero_extend[31] ?x299) bv0[32]))) (iff constraint59 (not (= (zero_extend[30] ?x304) bv1[32]))) (iff constraint60 (not (= (zero_extend[30] ?x309) bv2[32]))) (iff constraint61 (not (= (zero_extend[30] ?x314) bv3[32]))) $x723 (iff constraint63 (not (= (zero_extend[31] ?x322) bv0[32]))) (iff constraint64 (not (= (zero_extend[30] ?x327) bv1[32]))) (iff constraint65 (not (= (zero_extend[30] ?x332) bv2[32]))) $x731 (iff constraint67 (not (= (zero_extend[31] ?x340) bv0[32]))) (iff constraint68 (= (zero_extend[31] ?x345) bv1[32])) (iff constraint69 (not $x350)) (iff constraint70 (not $x355)) (iff constraint71 $x359) $x743 (iff constraint73 (= (zero_extend[31] ?x364) bv1[32])) $x747 (iff constraint75 (= sfEvent__2_ sf_previousEvent_1_)) (iff constraint76 (= (zero_extend[31] ?x374) bv1[32])) $x753 (iff constraint78 (= gtINDEX0 gtAGG__rtDWork)) (iff constraint79 (= gtINDEX1 gtAGG__rtDWork)) (iff constraint80 (= gtINDEX2 gtAGG__rtDWork)) (iff constraint81 (= gtINDEX3 gtAGG__rtDWork)) (iff constraint82 (= gtINDEX4 gtAGG__rtDWork)) (iff constraint83 (= gtINDEX5 gtAGG__rtDWork)) (iff constraint84 (= gtINDEX6 gtAGG__rtDWork)) (iff constraint85 (= gtINDEX7 gtAGG__rtDWork)) (iff constraint86 (= gtINDEX8 gtAGG__rtDWork)) (iff constraint87 (= gtINDEX9 gtAGG__rtDWork)) (iff constraint88 (= gtINDEX10 gtAGG__rtDWork)) (iff constraint89 (= gtINDEX11 gtAGG__rtDWork)) (iff constraint90 $x395) (iff constraint91 (= gtINDEX13 gtAGG__rtDWork)) (iff constraint92 $x399) (iff constraint93 (= gtINDEX15 gtAGG__rtDWork)) (iff constraint94 $x403) (iff constraint95 (= gtINDEX17 gtAGG__rtDWork)) (iff constraint96 $x407) (iff constraint97 (= gtINDEX19 gtAGG__rtDWork)) (iff constraint98 $x411) (iff constraint99 (= gtINDEX21 gtAGG__rtDWork)) (iff constraint100 $x415) (iff constraint101 (= gtINDEX23 gtAGG__rtDWork)) (iff constraint102 $x419) (iff constraint103 (= gtINDEX25 gtAGG__rtDWork)) (iff constraint104 $x423) (iff constraint105 (= gtINDEX27 gtAGG__rtDWork)) (iff constraint106 $x427) (iff constraint107 (= gtINDEX29 gtAGG__rtDWork)) (iff constraint108 $x431) (iff constraint109 (= gtINDEX31 gtAGG__rtDWork)) (iff constraint110 $x435) (iff constraint111 (= gtINDEX33 gtAGG__rtDWork)) (iff constraint112 (= gtINDEX34 gtAGG__rtDWork)) (iff constraint113 $x440) (iff constraint114 (= gtINDEX36 gtAGG__rtDWork)) (iff constraint115 $x444) (iff constraint116 (= gtINDEX38 gtAGG__rtDWork)) (iff constraint117 $x448) (iff constraint118 (= gtINDEX40 gtAGG__rtDWork)) (iff constraint119 $x452) (iff constraint120 (= gtINDEX42 gtAGG__rtDWork)) (iff constraint121 $x456) (iff constraint122 (= gtINDEX44 gtAGG__rtDWork)) (iff constraint123 $x460) (iff constraint124 (= gtINDEX46 gtAGG__rtDWork)) (iff constraint125 $x464) (iff constraint126 (= gtINDEX48 gtAGG__rtDWork)) (iff constraint127 $x468) (iff constraint128 (= gtINDEX50 gtAGG__rtDWork)) (iff constraint129 $x472) (iff constraint130 (= gtINDEX52 gtAGG__rtDWork)) (iff constraint131 $x476) (iff constraint132 (= gtINDEX54 gtAGG__rtDWork)) (iff constraint133 $x480) (iff constraint134 (= gtINDEX56 gtAGG__rtDWork)) (iff constraint135 (= gtINDEX57 gtAGG__rtDWork)) (iff constraint136 (= gtINDEX58 gtAGG__rtDWork)) (iff constraint137 $x486) (iff constraint138 (= gtINDEX60 gtAGG__rtDWork)) (iff constraint139 $x490) (iff constraint140 (= gtINDEX62 gtAGG__rtDWork)) (iff constraint141 $x494) (iff constraint142 (= gtINDEX64 gtAGG__rtDWork)) (iff constraint143 $x498) (iff constraint144 (= gtINDEX66 gtAGG__rtDWork)) (iff constraint145 $x502) (iff constraint146 (= gtINDEX68 gtAGG__rtDWork)) (iff constraint147 $x506) (iff constraint148 (= gtINDEX70 gtAGG__rtDWork)) (iff constraint149 $x510) (iff constraint150 (= gtINDEX72 gtAGG__rtDWork)) (iff constraint151 (= gtINDEX73 gtAGG__rtDWork)) (iff constraint152 $x515) (iff constraint153 (= gtINDEX75 gtAGG__rtDWork)) (iff constraint154 (= gtINDEX76 gtAGG__rtDWork)) (iff constraint155 $x520) (iff constraint156 (= gtINDEX78 gtAGG__rtDWork)) (iff constraint157 $x524) (iff constraint158 (= gtINDEX80 gtAGG__rtDWork)) (iff constraint159 $x528) (iff constraint160 (= gtINDEX82 gtAGG__rtDWork)) (iff constraint161 $x532) (iff constraint162 (= gtINDEX84 gtAGG__rtDWork)) (iff constraint163 (= gtINDEX85 gtAGG__rtDWork)) (iff constraint164 $x537) (iff constraint165 (= gtINDEX87 gtAGG__rtDWork)) (iff constraint166 $x541) (iff constraint167 (= gtINDEX89 gtAGG__rtDWork)) (iff constraint168 $x545) (iff constraint169 (= gtINDEX91 gtAGG__rtDWork)) (iff constraint170 $x549) (iff constraint171 (= gtINDEX93 gtAGG__rtDWork)) (iff constraint172 $x553) (iff constraint173 (= gtINDEX95 gtAGG__rtDWork)) (iff constraint174 $x557) (iff constraint175 (= gtINDEX97 gtAGG__rtDWork)) (iff constraint176 $x561) (iff constraint177 (= gtINDEX99 gtAGG__rtDWork)) (iff constraint178 $x565) (iff constraint179 (= gtINDEX101 gtAGG__rtDWork)) (iff constraint180 (= gtINDEX102 ?x568)) (iff constraint181 (= gtINDEX103 gtAGG__rtDWork)) (iff constraint182 (= gtINDEX104 ?x572)) (iff constraint183 (= gtINDEX105 gtAGG__rtDWork)) (iff constraint184 (= gtINDEX106 ?x576)) (iff constraint185 (= gtINDEX107 gtAGG__rtDWork)) (iff constraint186 (= gtINDEX108 gtAGG__rtDWork)) (iff constraint187 (= gtINDEX109 gtAGG__rtDWork)) (iff constraint188 (= gtINDEX110 gtAGG__rtDWork)) (iff constraint189 (= gtINDEX111 gtAGG__rtDWork)) (iff constraint190 (= gtINDEX112 ?x584)) (iff constraint191 (= gtINDEX113 gtAGG__rtDWork)) (iff constraint192 (= gtINDEX114 ?x588)) (iff constraint193 (= gtINDEX115 gtAGG__rtDWork)) (iff constraint194 (= gtINDEX116 ?x592)) (iff constraint195 (= gtINDEX117 gtAGG__rtDWork)) (iff constraint196 (= gtINDEX118 ?x596))))
(and $x992 $x993)))))))))))))))))))))))))))))))))))))))))))))))))))))))))))))))))))))))))))))))))))))))))))))))))))))))))))))))))))))))))))))))))))))))))
)
